c status 33 1469274802095
c status 25 1469274802095
c status 24 1469274802179
c status 23 1469274802330
s td 68 23 100
b 1 1 18 13 100 99 2
b 2 18 13 100 19 99 20 2 91 16 17
b 3 24 35 13 31 2 46
b 4 35 13 31 2 46 57
b 5 13 100 19 99 20 31 2 91 46 57 16 17
b 6 98 97 96 100 19 99 2 55
b 7 95 97 96 94 93 54
b 8 97 96 100 19 99 2 94 93 54 55
b 9 100 19 99 20 31 2 94 93 91 46 57 54 55 16 17
b 10 21 22 23 19 20
b 11 22 23 25 19 20 57
b 12 23 25 26 19 20 57
b 13 27 29 25 26 28 51
b 14 29 25 26 28 31 30 51 16
b 15 25 26 19 28 20 31 57 30 51 9 16
b 16 19 99 28 20 31 2 94 93 91 46 57 70 30 54 51 55 9 16 17
b 17 65 67 66 63 64 34
b 18 69 67 66 70 71
b 19 67 66 63 64 56 28 39 34 70 71
b 20 59 60 61 56 58
b 21 62 60 61 63 64
b 22 60 61 63 64 56 58 91
b 23 61 63 64 56 58 2 91
b 24 63 64 56 58 28 20 2 91 39 34 70 71
b 25 64 56 58 28 20 2 91 39 34 70 71 50
b 26 56 58 28 20 2 91 39 34 70 71 54 50 55
b 27 37 36 38 39 34
b 28 36 33 38 39 34 55
b 29 33 32 58 99 31 38 39 34 55
b 30 32 58 99 31 57 38 39 34 30 55
b 31 58 99 28 20 31 2 91 57 38 39 34 70 71 30 54 50 55
b 32 99 28 20 31 2 94 93 91 46 57 38 39 34 70 71 30 54 50 51 55 9 16 17
b 33 28 20 31 2 94 93 91 46 57 38 39 34 70 71 30 54 50 51 55 9 6 16 17
b 34 11 14 12 10 50 9
b 35 15 14 12 16 17
b 36 14 12 10 7 50 9 16 17
b 37 68 90 79 46 57 34 54
b 38 90 4 79 3 10 46 57 34 54
b 39 4 5 79 49 3 10 46 57 34 70 54 6
b 40 5 79 49 3 10 7 46 57 34 70 54 6
b 41 47 45 48 49 44
b 42 45 48 79 49 44 43 93
b 43 48 79 49 44 43 93 50
b 44 79 49 44 3 10 43 7 93 46 57 34 70 54 50 6
b 45 49 44 3 10 43 7 93 46 57 34 70 54 50 51 6
b 46 53 52 54 51 55
b 47 52 40 54 50 51 55 17
b 48 40 42 3 41 38 39 54 50 51 55 17
b 49 42 44 3 84 41 43 38 39 54 50 51 55 17
b 50 44 3 84 10 41 43 7 93 46 57 38 39 34 70 54 50 51 55 6 17
b 51 8 77 10 7 9 6
b 52 75 73 74 77 76 43 94
b 53 72 73 74 70 71
b 54 73 74 77 76 43 94 46 70 71
b 55 80 78 81 82 77 7
b 56 83 81 82 85 84 38 70
b 57 78 81 82 77 76 85 41 7 34 30
b 58 81 82 77 76 85 84 41 7 38 34 70 30
b 59 77 76 85 84 10 41 43 7 94 46 38 34 70 71 30 9 6
b 60 76 85 84 10 41 43 7 94 46 38 34 70 71 30 55 9 6
b 61 86 87 88 85 84 51
b 62 87 88 89 85 84 51
b 63 88 89 85 84 91 51
b 64 92 89 94 93 91
b 65 89 85 84 94 93 91 51
b 66 85 84 10 41 43 7 94 93 91 46 38 34 70 71 30 51 55 9 6
b 67 84 10 41 43 7 94 93 91 46 57 38 39 34 70 71 30 54 50 51 55 9 6 17
b 68 10 41 43 7 94 93 91 46 57 38 39 34 70 71 30 54 50 51 55 9 6 16 17
1 2
2 5
5 9
9 16
16 32
32 33
33 68
68 67
67 50
67 66
66 60
32 31
60 59
50 45
45 44
50 49
31 26
44 40
26 25
40 39
25 24
59 58
49 48
16 15
31 30
58 57
9 8
39 38
24 19
30 29
59 54
15 14
8 6
68 36
44 43
43 42
58 56
24 23
23 22
48 47
38 37
66 65
54 52
36 34
65 63
63 62
62 61
59 51
5 4
4 3
15 12
12 11
57 55
8 7
19 17
29 28
14 13
65 64
22 21
22 20
47 46
11 10
36 35
28 27
42 41
54 53
19 18
